% File represents an instance of a Composite Structure problem to be solved by a CP framework
% Created on 2025-03-26 10:41:35.759
T = 58;
n = 25;
m = 40;
edges = [(1, 2),
(6, 7),
(11, 12),
(16, 17),
(21, 22),
(3, 2),
(7, 8),
(12, 13),
(17, 18),
(22, 23),
(3, 4),
(9, 8),
(14, 13),
(19, 18),
(24, 23),
(4, 5),
(9, 10),
(15, 14),
(20, 19),
(25, 24),
(6, 1),
(6, 11),
(16, 11),
(21, 16),
(7, 2),
(7, 12),
(12, 17),
(22, 17),
(3, 8),
(8, 13),
(18, 13),
(23, 18),
(9, 4),
(9, 14),
(14, 19),
(24, 19),
(10, 5),
(15, 10),
(15, 20),
(25, 20)];
counts = [|12, 26, 12, 6,
|12, 22, 12, 6,
|12, 26, 12, 8,
|12, 26, 12, 6,
|12, 24, 12, 4,
|12, 28, 12, 6,
|12, 24, 12, 6,
|12, 24, 12, 4,
|12, 26, 12, 8,
|12, 24, 12, 8,
|12, 26, 12, 4,
|12, 24, 12, 4,
|12, 20, 12, 2,
|12, 24, 12, 4,
|12, 26, 12, 8,
|12, 26, 12, 6,
|12, 24, 12, 2,
|12, 22, 12, 2,
|12, 24, 12, 2,
|12, 26, 12, 6,
|12, 28, 12, 6,
|12, 24, 12, 6,
|12, 24, 12, 2,
|12, 24, 12, 8,
|12, 26, 12, 8|];
